SYSTEM = Si
PREC = Normal
EDIFF = 1e-3
IBRION = 2
ISIF = 3
NSW = 100
ISMEAR = 1
SIGMA = 0.060
POTIM = 0.020
ISTART = 0
LCHARG = FALSE
LWAVE = FALSE
#Crude optimisation
EDIFFG = 1e-2
KSPACING = 1.256
LREAL = A
ALGO = Fast
