SYSTEM = Si
PREC = A
EDIFF = 1e-4
ENCUT = 600
EDIFFG = -2e-2
IBRION = 2
ISIF = 3
NSW = 60
ISMEAR = 0
SIGMA = 0.05
POTIM = 0.60
ISTART = 0
LCHARG = FALSE
LWAVE = FALSE
KSPACING = 0.618
LREAL = A
ALGO = Fast
NPAR = 2
