units metal
boundary p p p 
atom_style atomic

read_data data

pair_style deepmd graph.pb
pair_coeff

dump 1 all custom 1 out.dump id type x y z fx fy fz
compute 1 all pe
variable  pe equal c_1
fix printenergy all print 1 "energy = ${pe}" file energy.out
run 1
