 C 
 1.0000000000000000
     6.2922474778633637   -0.0000000000000000    0.0000000000000000
    -0.0000000000000000    4.3746368139152167    0.0000000000000000
     0.0000000000000000    0.0000000000000000   15.0000000000000000
 C  
  10
Direct
  0.5000000000000000  0.1644754465712768  0.3196349224384487
  0.5000000000000000  0.8355245534287233  0.3196349224384487
  0.6962931368691307  0.6644752200843748  0.3196349224384487
  0.3037068631308693  0.3355247799156255  0.3196349224384487
  0.3037068631308694  0.6644752200843748  0.3196349224384487
  0.6962931368691307  0.3355247799156255  0.3196349224384487
  0.8810208650784889  0.8390089780997045  0.3196349224384487
  0.1189791349215114  0.1609910219002955  0.3196349224384487
  0.1189791349215114  0.8390089780997045  0.3196349224384487
  0.8810208650784889  0.1609910219002955  0.3196349224384487
