 C 
 1.0000000000000000
     3.6655762667295191    0.0000000000000000    0.0000000000000000
     0.0000000000000000    9.1326864545339976    0.0000000000000000
     0.0000000000000000    0.0000000000000000   15.0000000000000000
 C  
  12
Direct
  0.0000000000000000  0.4693436019039065  0.3905461323086861
  0.4999999999999999  0.9693436019039000  0.3905461323086861
  0.0000000000000000  0.3148419674607318  0.3905461323086861
  0.4999999999999999  0.8148419674607317  0.3905461323086861
  0.3094348012554085  0.2186876819869531  0.3905461323086861
  0.8094348012554086  0.7186876819869530  0.3905461323086861
  0.6905651987445913  0.2186876819869531  0.3905461323086861
  0.1905651987445914  0.7186876819869530  0.3905461323086861
  0.3095041423781906  0.5655013916484286  0.3905461323086861
  0.8095041423781904  0.0655013916484214  0.3905461323086861
  0.6904958576218095  0.5655013916484286  0.3905461323086861
  0.1904958576218093  0.0655013916484214  0.3905461323086861
