 C 
 1.0000000000000000
     4.9343006125952016    0.0000072188816074    0.0000000000000000
    -2.4671565580324684    4.2732260709757517   -0.0000000000000000
    -0.0000000000000000   -0.0000000000000000   15.0000000000000000
 C  
   8
Direct
  0.6666669999999968  0.3333330000000032  0.4026400332691157
  0.0000000000000000  0.0000000000000000  0.4026400332691157
  0.5000364162689017 -0.0000199300135394  0.4026400332691157
  0.0000199300135394  0.5000563462824346  0.4026400332691157
  0.4999436537175659  0.4999635837310982  0.4026400332691157
  0.6666476318128792  0.8332898868691397  0.4026400332691157
  0.1667101131308605  0.8333577449437404  0.4026400332691157
  0.1666422550562603  0.3333523681871204  0.4026400332691157
