 C 
 1.0000000000000000
     4.8378757700598483    0.5705311305603417    0.0000000000000000
     2.1325970469208206    2.7047280717314570    0.0000000000000000
     0.0000000000000000    0.0000000000000000   15.0000000000000000
 C  
   4
Direct
  0.1982751017965965  0.8016685717742909  0.3709480816519106
  0.8017248982034038  0.1983314282257093  0.3709480816519106
  0.4999396974377718  0.1984257834698688  0.3709480816519106
  0.5000603025622283  0.8015742165301455  0.3709480816519106
