SYSTEM = Si
PREC = NORMAL
EDIFF = 1e-4
IBRION = 2
ISIF = 3
NSW = 70
ISMEAR = 0 
SIGMA = 0.10
POTIM = 0.50
ISTART = 0
#Crude optimisation
EDIFFG = 1e-3
LCHARG = FALSE
LWAVE = FALSE
KSPACING = 0.942
LREAL = A
ALGO = Fast
NPAR = 2
