 C 
 1.0000000000000000
     3.5624724060878035    0.0000000000000000    0.0000000000000000
     0.0000000000000000    3.5624724060878035   -0.0000000000000000
     0.0000000000000000   -0.0000000000000000    3.5624724060878035
 C  
   8
Direct
  0.2500000000000000  0.7500000000000000  0.2500000000000000
  0.0000000000000000  0.0000000000000000  0.5000000000000000
  0.2500000000000000  0.2500000000000000  0.7500000000000000
  0.0000000000000000  0.5000000000000000  0.0000000000000000
  0.7500000000000000  0.7500000000000000  0.7500000000000000
  0.5000000000000000  0.0000000000000000  0.0000000000000000
  0.7500000000000000  0.2500000000000000  0.2500000000000000
  0.5000000000000000  0.5000000000000000  0.5000000000000000
